This is Ipopt version 3.14.16, running with linear solver MUMPS 5.7.3.

Number of nonzeros in equality constraint Jacobian...:        0
Number of nonzeros in inequality constraint Jacobian.:       36
Number of nonzeros in Lagrangian Hessian.............:        0

Total number of variables............................:        4
                     variables with only lower bounds:        0
                variables with lower and upper bounds:        4
                     variables with only upper bounds:        0
Total number of equality constraints.................:        0
Total number of inequality constraints...............:        9
        inequality constraints with only lower bounds:        9
   inequality constraints with lower and upper bounds:        0
        inequality constraints with only upper bounds:        0

iter    objective    inf_pr   inf_du lg(mu)  ||d||  lg(rg) alpha_du alpha_pr  ls
   0  6.0910399e+01 1.20e+01 1.67e+00   0.0 0.00e+00    -  0.00e+00 0.00e+00   0
   1  4.6738869e+01 0.00e+00 9.91e+00  -1.2 9.21e+00    -  6.44e-01 9.99e-01f  1
   2  4.8207123e+01 0.00e+00 8.07e-01   0.2 3.29e+00    -  8.00e-01 1.00e+00f  1
   3  4.2737593e+01 0.00e+00 4.42e-01  -0.8 7.86e+00    -  9.46e-01 5.29e-01f  1
   4  3.9859821e+01 0.00e+00 2.29e-01  -0.9 8.49e+00    -  1.00e+00 8.70e-01f  1
   5  3.8963751e+01 0.00e+00 3.68e-02  -2.0 2.68e+00    -  1.00e+00 9.38e-01f  1
   6  3.8908812e+01 0.00e+00 9.78e-03  -2.8 3.57e-02    -  1.00e+00 9.87e-01h  1
   7  3.8902889e+01 0.00e+00 6.38e-08  -4.8 5.83e-03    -  9.95e-01 9.97e-01h  1
   8  3.8902814e+01 4.00e+00 1.95e+00 -10.6 7.97e-05    -  1.00e+00 1.00e+00h  1
   9  3.8902815e+01 0.00e+00 2.81e+01  -7.1 1.90e+00    -  1.18e-01 1.00e+00h  1
iter    objective    inf_pr   inf_du lg(mu)  ||d||  lg(rg) alpha_du alpha_pr  ls
  10  3.8902815e+01 0.00e+00 3.20e+00  -8.3 1.10e+00    -  1.00e+00 1.00e+00h  1
  11  3.8902814e+01 4.00e+00 1.93e+00  -8.9 1.27e+00    -  1.00e+00 1.00e+00h  1
  12  3.8902815e+01 0.00e+00 3.93e+00  -9.0 3.20e-01    -  3.13e-02 1.31e-01h  1
In iteration 12, 1 Slack too small, adjusting variable bound
  13  3.8902815e+01 0.00e+00 4.86e+00  -9.0 2.98e-01    -  1.00e+00 5.21e-01H  1
  14  3.8902815e+01 0.00e+00 1.19e+01  -9.0 2.42e-01    -  8.01e-03 1.00e+00H  1
  15  3.8902814e+01 0.00e+00 1.18e+01  -9.0 1.25e+00    -  4.43e-01 1.32e-02h  2
In iteration 15, 1 Slack too small, adjusting variable bound
  16  3.8902814e+01 0.00e+00 1.12e+01  -9.0 5.40e+01    -  4.03e-02 4.91e-02h  1
  17  3.8902814e+01 0.00e+00 1.17e+01  -9.0 4.49e+00    -  1.00e+00 2.20e-01h  2
  18  3.8902814e+01 4.00e+00 1.19e-01  -9.4 1.18e-01    -  1.00e+00 1.00e+00h  1
  19  3.8902814e+01 4.00e+00 4.57e-01  -9.5 1.96e+01    -  1.00e+00 1.39e-01h  1
iter    objective    inf_pr   inf_du lg(mu)  ||d||  lg(rg) alpha_du alpha_pr  ls
  20  3.8902815e+01 0.00e+00 7.96e+02  -9.5 3.02e-01    -  3.41e-03 1.00e+00h  1
  21  3.8902815e+01 0.00e+00 2.21e+00  -9.5 1.05e-02    -  6.96e-01 1.00e+00H  1
  22  3.8902815e+01 0.00e+00 2.21e+00  -9.5 1.51e+00    -  2.22e-01 1.03e-03h  3
  23  3.8902815e+01 0.00e+00 2.21e+00  -9.5 8.68e+01    -  1.84e-02 4.23e-03h  6
  24  3.8902815e+01 0.00e+00 2.20e+00  -9.5 2.04e+02    -  4.09e-03 4.30e-04h  8
  25  3.8902815e+01 0.00e+00 2.20e+00  -9.5 7.99e+02    -  6.42e-03 1.08e-04h  8
  26  3.8902815e+01 0.00e+00 2.20e+00  -9.5 1.85e+03    -  5.40e-04 1.16e-05h 10
  27  3.8902815e+01 0.00e+00 2.20e+00  -9.5 2.72e+03    -  3.47e-03 7.89e-06h 10
  28  3.8902815e+01 0.00e+00 2.20e+00  -9.5 4.31e+03    -  2.40e-04 2.48e-06h 11
  29r 3.8902815e+01 0.00e+00 9.99e+02   0.1 0.00e+00    -  0.00e+00 4.60e-07R 13
iter    objective    inf_pr   inf_du lg(mu)  ||d||  lg(rg) alpha_du alpha_pr  ls
  30r 3.8902814e+01 1.28e-08 9.99e+02  -6.2 4.47e+05    -  4.43e-05 3.06e-05f  1
  31r 3.8902814e+01 8.43e-08 3.26e+01  -6.2 1.57e+04    -  9.90e-01 1.03e-03f  1
  32r 3.8903012e+01 6.87e-06 5.01e+01  -4.5 1.44e+03    -  1.23e-01 9.80e-01f  1
  33r 3.9375298e+01 0.00e+00 4.30e-01  -1.2 1.44e+03    -  9.93e-01 9.91e-01f  1
  34r 3.9439296e+01 0.00e+00 1.60e-02  -3.1 1.23e+01    -  9.69e-01 1.00e+00h  1
  35  3.9390476e+01 0.00e+00 1.81e+00  -9.5 6.75e-02    -  1.00e+00 1.00e+00f  1
  36  3.9376450e+01 0.00e+00 1.80e+00  -9.5 6.76e-02    -  1.00e+00 2.86e-01f  1
  37  3.9269814e+01 0.00e+00 1.79e+00  -9.5 1.86e+01    -  1.00e+00 1.24e-02f  1
  38  3.9069924e+01 0.00e+00 1.66e+00  -9.5 5.23e+00    -  1.00e+00 7.19e-02f  1
  39  3.8986384e+01 0.00e+00 3.46e+00  -9.5 1.07e+01    -  1.00e+00 1.49e-02f  2
iter    objective    inf_pr   inf_du lg(mu)  ||d||  lg(rg) alpha_du alpha_pr  ls
  40  3.8944599e+01 0.00e+00 1.73e+00  -9.5 1.55e-01    -  1.00e+00 5.00e-01h  2
  41  3.8923707e+01 0.00e+00 8.65e-01  -9.5 7.73e-02    -  1.00e+00 5.00e-01h  2
  42  3.8902969e+01 0.00e+00 1.24e-02  -9.5 3.83e-02    -  1.00e+00 1.00e+00h  1
  43  3.8902892e+01 0.00e+00 8.84e-03  -9.5 2.66e-04    -  1.00e+00 4.96e-01h  2
  44  3.8902853e+01 0.00e+00 4.42e-03  -9.5 1.32e-04    -  1.00e+00 5.00e-01h  2
  45  3.8902814e+01 0.00e+00 2.38e-07 -11.0 6.59e-05    -  1.00e+00 9.96e-01h  1
  46  3.8902814e+01 4.00e+00 3.80e-03 -11.0 8.12e-05    -  1.00e+00 1.00e+00h  1
  47  3.8902814e+01 4.00e+00 1.80e-02 -11.0 1.89e+01    -  1.00e+00 1.11e-01h  1
  48  3.8902815e+01 0.00e+00 4.43e+04 -11.0 2.10e-01    -  7.49e-05 1.00e+00h  1
  49  3.8902815e+01 0.00e+00 2.31e+00 -11.0 1.11e-02    -  7.29e-01 1.00e+00h  1
iter    objective    inf_pr   inf_du lg(mu)  ||d||  lg(rg) alpha_du alpha_pr  ls
  50r 3.8902815e+01 0.00e+00 9.99e+02   0.3 0.00e+00    -  0.00e+00 4.91e-07R 21
  51r 3.8902832e+01 0.00e+00 9.97e+02  -6.0 2.12e+03    -  2.30e-03 9.90e-04f  1
  52  3.8902830e+01 0.00e+00 1.79e+00 -11.0 3.07e-01   0.0 4.17e-05 5.48e-04h  2
  53  3.8902829e+01 0.00e+00 1.79e+00 -11.0 3.07e-01    -  3.23e-01 4.78e-04h  2
  54  3.8902828e+01 0.00e+00 1.79e+00 -11.0 3.07e-01   0.4 5.22e-04 8.19e-05h  2
In iteration 54, 1 Slack too small, adjusting variable bound
  55  3.8902817e+01 1.10e-07 1.79e+00 -11.0 6.14e+00    -  7.55e-06 2.20e-06h  1
In iteration 55, 1 Slack too small, adjusting variable bound
  56  3.8902817e+01 1.10e-07 1.79e+00 -11.0 6.88e+02    -  2.19e-02 1.16e-10h  1
  57  3.8902814e+01 4.00e+00 1.94e+04 -11.0 2.30e+00    -  3.16e-02 2.10e-06h  1
In iteration 57, 1 Slack too small, adjusting variable bound
  58  3.8902814e+01 4.00e+00 1.94e+04 -11.0 2.54e+03    -  7.87e-03 9.10e-07h  1
  59r 3.8902814e+01 4.00e+00 9.99e+02   1.3 0.00e+00    -  0.00e+00 1.35e-07R 10
iter    objective    inf_pr   inf_du lg(mu)  ||d||  lg(rg) alpha_du alpha_pr  ls
  60r 3.8876210e+01 2.14e-02 9.99e+02  -5.0 3.84e+07    -  1.79e-08 9.90e-04f  1
  61r 3.8983271e+01 2.98e+00 4.97e+02  -0.1 3.83e+04    -  1.00e+00 9.94e-04f  1
  62r 5.0425846e+01 0.00e+00 6.59e+00   0.5 3.80e+04    -  9.38e-01 9.89e-01f  1
  63r 4.5580151e+01 0.00e+00 2.35e+00  -0.3 3.88e+02    -  4.46e-01 9.96e-01f  1
  64r 4.4743017e+01 0.00e+00 4.38e-01  -2.0 4.26e+00    -  9.55e-01 1.00e+00f  1
  65  4.1881486e+01 0.00e+00 1.78e+00 -11.0 1.58e+01    -  1.00e+00 2.69e-01f  1
  66  3.9820572e+01 0.00e+00 1.78e+00 -11.0 2.10e+07    -  5.14e-07 1.80e-07f  1
  67r 3.9820572e+01 0.00e+00 9.99e+02  -0.4 0.00e+00    -  0.00e+00 2.36e-11R  3
  68r 4.3230704e+01 9.72e-07 9.88e+02  -6.7 6.13e+03    -  3.40e-01 9.90e-04f  1
  69  4.2378169e+01 9.72e-07 1.79e+00 -11.0 2.95e+08    -  3.06e-07 4.17e-09f  3
iter    objective    inf_pr   inf_du lg(mu)  ||d||  lg(rg) alpha_du alpha_pr  ls
  70  4.1738767e+01 9.72e-07 1.79e+00 -11.0 3.42e+08    -  3.11e-08 3.13e-09f  3
  71  4.1498991e+01 9.72e-07 1.79e+00 -11.0 3.31e+07    -  2.83e-02 1.36e-08f  4
In iteration 71, 1 Slack too small, adjusting variable bound
  72  4.1498991e+01 9.78e-07 1.79e+00 -11.0 9.17e+05    -  1.23e-05 2.24e-13f  1
  73  4.1289183e+01 9.78e-07 1.79e+00 -11.0 4.71e+05    -  2.72e-04 8.78e-07f  4
In iteration 73, 1 Slack too small, adjusting variable bound
  74  4.1283618e+01 9.77e-07 1.79e+00 -11.0 1.02e+01    -  1.00e+00 1.06e-03h  1
  75  4.0550666e+01 9.77e-07 1.79e+00 -11.0 6.34e+04    -  1.85e-04 2.37e-05f  2
  76  4.0184131e+01 9.77e-07 1.79e+00 -11.0 2.98e+04    -  4.34e-03 2.43e-05f  2
  77  4.0000117e+01 9.77e-07 1.79e+00 -11.0 2.08e+03    -  1.00e+00 1.71e-04f  2
  78  3.9905296e+01 9.76e-07 1.79e+00 -11.0 2.57e+02    -  6.29e-02 6.82e-04f  2
  79  3.9815422e+01 9.67e-07 3.53e+00 -11.0 2.22e+01    -  1.00e+00 9.42e-03f  2
iter    objective    inf_pr   inf_du lg(mu)  ||d||  lg(rg) alpha_du alpha_pr  ls
  80  3.9086011e+01 8.01e-07 2.97e+00 -11.0 1.97e+01    -  1.00e+00 1.72e-01f  1
  81  3.8914598e+01 2.50e-07 9.30e-01 -11.0 3.36e-01    -  1.00e+00 6.87e-01h  1
  82  3.8902814e+01 4.00e+00 1.90e-03 -11.0 1.05e-01    -  1.00e+00 1.00e+00h  1
  83  3.8902814e+01 4.00e+00 1.56e-02 -11.0 1.89e+01    -  1.00e+00 1.11e-01h  1
  84  3.8902815e+01 0.00e+00 1.16e+05 -11.0 2.09e-01    -  2.87e-05 1.00e+00h  1
  85  3.8902815e+01 4.00e+00 1.06e+04 -11.0 7.84e-02    -  8.70e-01 8.70e-01s 22
  86  3.8902815e+01 4.00e+00 1.05e+04 -11.0 1.46e-01    -  1.23e-02 1.23e-02s 22
  87  3.8902815e+01 0.00e+00 1.30e+03 -11.0 1.34e-01    -  8.76e-01 8.76e-01s 22
  88  3.8902815e+01 0.00e+00 1.29e+03 -11.0 2.08e+00    -  9.28e-03 9.28e-03s 22
  89  3.8902815e+01 0.00e+00 1.30e+03 -11.0 2.06e+00    -  5.89e-01 0.00e+00S 22
iter    objective    inf_pr   inf_du lg(mu)  ||d||  lg(rg) alpha_du alpha_pr  ls
  90  3.8902815e+01 0.00e+00 5.16e-01 -11.0 8.49e-01    -  6.16e-01 1.00e+00h  1
  91  3.8902815e+01 0.00e+00 6.06e-01 -11.0 1.96e-09    -  4.22e-01 1.00e+00h  1
  92  3.8902815e+01 0.00e+00 3.23e-01 -11.0 5.45e-04    -  1.00e+00 2.89e-04f  2
  93  3.8902815e+01 0.00e+00 4.83e+02 -11.0 8.25e+00    -  4.86e-01 1.28e-01h  2
In iteration 93, 1 Slack too small, adjusting variable bound
  94  3.8902814e+01 0.00e+00 5.86e+02 -11.0 1.01e+03    -  1.04e-03 8.61e-03h  1
In iteration 94, 1 Slack too small, adjusting variable bound
  95  3.8902814e+01 0.00e+00 5.97e+02 -11.0 7.33e+00    -  1.00e+00 7.09e-03h  1
  96  3.8902814e+01 0.00e+00 1.47e+03 -11.0 7.61e+00    -  1.00e+00 1.16e-01h  2
  97  3.8902814e+01 0.00e+00 1.18e+03 -11.0 6.73e+00    -  1.00e+00 3.44e-01H  1
  98  3.8902814e+01 0.00e+00 2.06e+07 -11.0 1.95e+00    -  8.25e-11 5.00e-01h  2
  99  3.8902814e+01 0.00e+00 1.80e+07 -11.0 1.13e+00    -  9.81e-01 1.25e-01h  4
iter    objective    inf_pr   inf_du lg(mu)  ||d||  lg(rg) alpha_du alpha_pr  ls
 100  3.8902814e+01 0.00e+00 1.69e+07 -11.0 9.89e-01    -  1.00e+00 6.25e-02h  5
 101  3.8902814e+01 0.00e+00 1.66e+07 -11.0 9.27e-01    -  1.00e+00 1.56e-02h  7
In iteration 101, 1 Slack too small, adjusting variable bound
 102  3.8902814e+01 0.00e+00 1.65e+07 -11.0 1.10e+01    -  1.09e-01 7.73e-03h  1
 103  3.8902814e+01 0.00e+00 1.64e+07 -11.0 8.41e-01    -  1.00e+00 4.80e-03h  6
 104  3.8902814e+01 0.00e+00 1.64e+07 -11.0 8.24e-01    -  1.00e+00 2.44e-04h 13
 105  3.8902814e+01 0.00e+00 1.64e+07 -11.0 8.24e-01    -  1.00e+00 1.22e-04h 14
 106  3.8902814e+01 0.00e+00 1.64e+07 -11.0 8.24e-01    -  1.00e+00 6.10e-05h 15
 107  3.8902814e+01 0.00e+00 1.64e+07 -11.0 8.24e-01    -  1.00e+00 3.05e-05h 16
 108  3.8902814e+01 0.00e+00 1.64e+07 -11.0 8.24e-01    -  1.00e+00 1.53e-05h 17
 109  3.8902814e+01 4.00e+00 3.87e-03 -11.0 8.24e-01    -  1.00e+00 1.00e+00s 22
iter    objective    inf_pr   inf_du lg(mu)  ||d||  lg(rg) alpha_du alpha_pr  ls
 110  3.8902814e+01 4.00e+00 3.44e-03 -11.0 1.90e+01    -  1.11e-01 1.11e-01s 22
 111r 3.8902814e+01 4.00e+00 9.99e+02   1.2 0.00e+00    -  0.00e+00 0.00e+00R  1
 112r 3.8902817e+01 0.00e+00 9.99e+02  -5.1 1.68e+05    -  4.01e-06 9.90e-04f  1
 113r 3.8904020e+01 0.00e+00 9.90e+02  -0.4 9.30e+02    -  3.59e-01 9.96e-04f  1
 114r 3.9019526e+01 0.00e+00 2.12e+01   1.2 1.64e+02    -  9.73e-01 3.60e-01f  1
 115r 3.9222433e+01 0.00e+00 4.74e+00  -0.4 1.05e+02    -  7.79e-01 9.84e-01f  1
 116r 3.9297701e+01 0.00e+00 1.21e-01  -2.0 1.67e+00    -  9.79e-01 1.00e+00f  1
 117r 3.9318556e+01 0.00e+00 6.56e-03  -3.4 2.39e-02    -  9.92e-01 1.00e+00f  1
 118r 3.9301291e+01 0.00e+00 2.88e-04  -5.3 6.57e-02    -  1.00e+00 1.00e+00f  1
 119r 3.9286656e+01 0.00e+00 2.24e-05  -6.2 4.15e-02    -  1.00e+00 1.00e+00h  1
iter    objective    inf_pr   inf_du lg(mu)  ||d||  lg(rg) alpha_du alpha_pr  ls
 120r 3.9213424e+01 0.00e+00 3.34e-05  -6.8 4.15e-01    -  1.00e+00 6.32e-01h  1
 121r 3.9176901e+01 0.00e+00 3.52e-06  -7.7 5.13e-02    -  1.00e+00 1.00e+00h  1
 122r 3.9140199e+01 0.00e+00 2.32e-07  -8.7 4.52e-02    -  1.00e+00 1.00e+00h  1
 123r 3.9116082e+01 0.00e+00 1.91e-07  -9.0 5.42e-02    -  1.00e+00 1.00e+00h  1
 124r 3.9102138e+01 0.00e+00 3.78e-07  -9.0 1.94e-02    -  1.00e+00 1.00e+00h  1
 125r 3.9096651e+01 0.00e+00 3.13e-07  -9.0 2.48e-02    -  1.00e+00 1.00e+00h  1
 126r 3.9085999e+01 0.00e+00 2.53e-07  -9.0 2.61e-02    -  1.00e+00 1.00e+00h  1
 127r 3.9078703e+01 0.00e+00 1.57e-07  -8.7 5.48e-02    -  1.00e+00 1.00e+00h  1
 128r 3.9071976e+01 0.00e+00 9.21e-08  -8.9 1.42e-02    -  1.00e+00 1.00e+00h  1
 129r 3.9074002e+01 0.00e+00 7.72e-09  -8.9 9.72e-03    -  1.00e+00 1.00e+00h  1
iter    objective    inf_pr   inf_du lg(mu)  ||d||  lg(rg) alpha_du alpha_pr  ls
 130r 3.9045160e+01 0.00e+00 6.43e-08 -10.3 3.13e-02    -  1.00e+00 1.00e+00h  1
 131r 3.9030070e+01 0.00e+00 1.32e-08 -10.3 2.49e-02    -  1.00e+00 1.00e+00h  1
 132r 3.9018155e+01 0.00e+00 1.20e-08 -10.3 1.28e-02    -  1.00e+00 1.00e+00h  1
 133r 3.9004358e+01 0.00e+00 1.35e-08 -10.3 2.43e-02    -  1.00e+00 1.00e+00h  1
 134r 3.8996271e+01 0.00e+00 6.76e-09 -10.3 9.10e-03    -  1.00e+00 1.00e+00h  1
 135r 3.8989515e+01 0.00e+00 3.51e-09 -10.3 1.25e-02    -  1.00e+00 1.00e+00h  1

Number of Iterations....: 135

                                   (scaled)                 (unscaled)
Objective...............:   3.8984242360478056e+01    3.8984242360478056e+01
Dual infeasibility......:   1.7899999438335890e+00    1.7899999438335890e+00
Constraint violation....:   0.0000000000000000e+00    0.0000000000000000e+00
Variable bound violation:   0.0000000000000000e+00    0.0000000000000000e+00
Complementarity.........:   5.0000000000000002e-11    5.0000000000000002e-11
Overall NLP error.......:   1.7899999438335890e+00    1.7899999438335890e+00


Number of objective function evaluations             = 464
Number of objective gradient evaluations             = 105
Number of equality constraint evaluations            = 0
Number of inequality constraint evaluations          = 464
Number of equality constraint Jacobian evaluations   = 0
Number of inequality constraint Jacobian evaluations = 142
Number of Lagrangian Hessian evaluations             = 0
Total seconds in IPOPT                               = 0.486

EXIT: Converged to a point of local infeasibility. Problem may be infeasible.
